45
1000
200	2
199	1
197	2
196	2
193	3
192	2
191	3
190	3
189	3
188	1
187	2
186	4
185	6
184	3
183	2
182	3
181	3
180	3
178	1
177	2
176	2
175	1
174	1
173	2
172	3
171	1
170	4
168	3
167	1
166	2
165	4
164	3
163	1
162	3
161	4
159	3
158	4
157	6
156	7
155	1
154	2
153	2
152	4
151	3
150	2
